p tw 544 2752
1 33
2 34
3 35
4 36
5 37
6 38
7 39
8 40
9 41
10 42
11 43
12 44
13 45
14 46
15 47
16 48
17 49
18 50
19 51
20 52
21 53
22 54
23 55
24 56
25 57
26 58
27 59
28 60
29 61
30 62
31 63
32 64
33 68
33 152
33 157
33 160
33 163
33 164
34 75
34 95
34 122
34 149
34 171
34 173
35 73
35 109
35 135
35 139
35 147
35 151
36 84
36 148
36 154
36 157
36 158
36 159
37 112
37 116
37 117
37 118
37 119
37 120
38 125
38 141
38 143
38 160
38 161
38 162
39 108
39 138
39 139
39 140
39 141
39 142
40 89
40 131
40 144
40 165
40 166
40 167
41 92
41 97
41 98
41 99
41 100
41 101
42 67
42 134
42 143
42 144
42 145
42 146
43 72
43 82
43 83
43 84
43 85
43 86
44 128
44 138
44 147
44 148
44 149
44 150
45 83
45 127
45 130
45 131
45 132
45 133
46 65
46 107
46 112
46 113
46 114
46 115
47 74
47 79
47 130
47 140
47 152
47 153
48 85
48 105
48 114
48 119
48 174
48 176
49 77
49 87
49 88
49 89
49 90
49 91
50 66
50 87
50 121
50 124
50 125
50 126
51 94
51 117
51 158
51 163
51 168
51 170
52 71
52 77
52 78
52 79
52 80
52 81
53 93
53 103
53 134
53 135
53 136
53 137
54 90
54 100
54 110
54 118
54 174
54 175
55 80
55 99
55 104
55 154
55 155
55 156
56 98
56 102
56 116
56 121
56 122
56 123
57 78
57 102
57 103
57 104
57 105
57 106
58 82
58 92
58 93
58 94
58 95
58 96
59 132
59 145
59 161
59 165
59 168
59 169
60 88
60 113
60 124
60 127
60 128
60 129
61 97
61 107
61 108
61 109
61 110
61 111
62 65
62 66
62 67
62 68
62 69
62 70
63 71
63 72
63 73
63 74
63 75
63 76
64 69
64 136
64 155
64 166
64 171
64 172
65 66
65 67
65 68
65 69
65 70
65 107
65 112
65 113
65 114
65 115
66 67
66 68
66 69
66 70
66 87
66 121
66 124
66 125
66 126
67 68
67 69
67 70
67 134
67 143
67 144
67 145
67 146
68 69
68 70
68 152
68 157
68 160
68 163
68 164
69 70
69 136
69 155
69 166
69 171
69 172
70 177
70 178
70 179
70 180
70 181
70 182
71 72
71 73
71 74
71 75
71 76
71 77
71 78
71 79
71 80
71 81
72 73
72 74
72 75
72 76
72 82
72 83
72 84
72 85
72 86
73 74
73 75
73 76
73 109
73 135
73 139
73 147
73 151
74 75
74 76
74 79
74 130
74 140
74 152
74 153
75 76
75 95
75 122
75 149
75 171
75 173
76 183
76 184
76 185
76 186
76 187
76 188
77 78
77 79
77 80
77 81
77 87
77 88
77 89
77 90
77 91
78 79
78 80
78 81
78 102
78 103
78 104
78 105
78 106
79 80
79 81
79 130
79 140
79 152
79 153
80 81
80 99
80 104
80 154
80 155
80 156
81 183
81 189
81 190
81 191
81 192
81 193
82 83
82 84
82 85
82 86
82 92
82 93
82 94
82 95
82 96
83 84
83 85
83 86
83 127
83 130
83 131
83 132
83 133
84 85
84 86
84 148
84 154
84 157
84 158
84 159
85 86
85 105
85 114
85 119
85 174
85 176
86 184
86 194
86 195
86 196
86 197
86 198
87 88
87 89
87 90
87 91
87 121
87 124
87 125
87 126
88 89
88 90
88 91
88 113
88 124
88 127
88 128
88 129
89 90
89 91
89 131
89 144
89 165
89 166
89 167
90 91
90 100
90 110
90 118
90 174
90 175
91 189
91 199
91 200
91 201
91 202
91 203
92 93
92 94
92 95
92 96
92 97
92 98
92 99
92 100
92 101
93 94
93 95
93 96
93 103
93 134
93 135
93 136
93 137
94 95
94 96
94 117
94 158
94 163
94 168
94 170
95 96
95 122
95 149
95 171
95 173
96 194
96 204
96 205
96 206
96 207
96 208
97 98
97 99
97 100
97 101
97 107
97 108
97 109
97 110
97 111
98 99
98 100
98 101
98 102
98 116
98 121
98 122
98 123
99 100
99 101
99 104
99 154
99 155
99 156
100 101
100 110
100 118
100 174
100 175
101 204
101 209
101 210
101 211
101 212
101 213
102 103
102 104
102 105
102 106
102 116
102 121
102 122
102 123
103 104
103 105
103 106
103 134
103 135
103 136
103 137
104 105
104 106
104 154
104 155
104 156
105 106
105 114
105 119
105 174
105 176
106 190
106 214
106 215
106 216
106 217
106 218
107 108
107 109
107 110
107 111
107 112
107 113
107 114
107 115
108 109
108 110
108 111
108 138
108 139
108 140
108 141
108 142
109 110
109 111
109 135
109 139
109 147
109 151
110 111
110 118
110 174
110 175
111 209
111 219
111 220
111 221
111 222
111 223
112 113
112 114
112 115
112 116
112 117
112 118
112 119
112 120
113 114
113 115
113 124
113 127
113 128
113 129
114 115
114 119
114 174
114 176
115 177
115 219
115 224
115 225
115 226
115 227
116 117
116 118
116 119
116 120
116 121
116 122
116 123
117 118
117 119
117 120
117 158
117 163
117 168
117 170
118 119
118 120
118 174
118 175
119 120
119 174
119 176
120 224
120 228
120 229
120 230
120 231
120 232
121 122
121 123
121 124
121 125
121 126
122 123
122 149
122 171
122 173
123 210
123 214
123 228
123 233
123 234
123 235
124 125
124 126
124 127
124 128
124 129
125 126
125 141
125 143
125 160
125 161
125 162
126 178
126 199
126 233
126 236
126 237
126 238
127 128
127 129
127 130
127 131
127 132
127 133
128 129
128 138
128 147
128 148
128 149
128 150
129 200
129 225
129 236
129 239
129 240
129 241
130 131
130 132
130 133
130 140
130 152
130 153
131 132
131 133
131 144
131 165
131 166
131 167
132 133
132 145
132 161
132 165
132 168
132 169
133 195
133 239
133 242
133 243
133 244
133 245
134 135
134 136
134 137
134 143
134 144
134 145
134 146
135 136
135 137
135 139
135 147
135 151
136 137
136 155
136 166
136 171
136 172
137 205
137 215
137 246
137 247
137 248
137 249
138 139
138 140
138 141
138 142
138 147
138 148
138 149
138 150
139 140
139 141
139 142
139 147
139 151
140 141
140 142
140 152
140 153
141 142
141 143
141 160
141 161
141 162
142 220
142 250
142 251
142 252
142 253
142 254
143 144
143 145
143 146
143 160
143 161
143 162
144 145
144 146
144 165
144 166
144 167
145 146
145 161
145 165
145 168
145 169
146 179
146 246
146 255
146 256
146 257
146 258
147 148
147 149
147 150
147 151
148 149
148 150
148 154
148 157
148 158
148 159
149 150
149 171
149 173
150 240
150 250
150 259
150 260
150 261
150 262
151 185
151 221
151 247
151 251
151 259
151 263
152 153
152 157
152 160
152 163
152 164
153 186
153 191
153 242
153 252
153 264
153 265
154 155
154 156
154 157
154 158
154 159
155 156
155 166
155 171
155 172
156 192
156 211
156 216
156 266
156 267
156 268
157 158
157 159
157 160
157 163
157 164
158 159
158 163
158 168
158 170
159 196
159 260
159 266
159 269
159 270
159 271
160 161
160 162
160 163
160 164
161 162
161 165
161 168
161 169
162 237
162 253
162 255
162 272
162 273
162 274
163 164
163 168
163 170
164 180
164 264
164 269
164 272
164 275
164 276
165 166
165 167
165 168
165 169
166 167
166 171
166 172
167 201
167 243
167 256
167 277
167 278
167 279
168 169
168 170
169 244
169 257
169 273
169 277
169 280
169 281
170 206
170 229
170 270
170 275
170 280
170 282
171 172
171 173
172 181
172 248
172 267
172 278
172 283
172 284
173 187
173 207
173 234
173 261
173 283
173 285
174 175
174 176
175 202
175 212
175 222
175 230
175 286
175 287
176 197
176 217
176 226
176 231
176 286
176 288
177 178
177 179
177 180
177 181
177 182
177 219
177 224
177 225
177 226
177 227
178 179
178 180
178 181
178 182
178 199
178 233
178 236
178 237
178 238
179 180
179 181
179 182
179 246
179 255
179 256
179 257
179 258
180 181
180 182
180 264
180 269
180 272
180 275
180 276
181 182
181 248
181 267
181 278
181 283
181 284
182 289
182 290
182 291
182 292
182 293
182 294
183 184
183 185
183 186
183 187
183 188
183 189
183 190
183 191
183 192
183 193
184 185
184 186
184 187
184 188
184 194
184 195
184 196
184 197
184 198
185 186
185 187
185 188
185 221
185 247
185 251
185 259
185 263
186 187
186 188
186 191
186 242
186 252
186 264
186 265
187 188
187 207
187 234
187 261
187 283
187 285
188 295
188 296
188 297
188 298
188 299
188 300
189 190
189 191
189 192
189 193
189 199
189 200
189 201
189 202
189 203
190 191
190 192
190 193
190 214
190 215
190 216
190 217
190 218
191 192
191 193
191 242
191 252
191 264
191 265
192 193
192 211
192 216
192 266
192 267
192 268
193 295
193 301
193 302
193 303
193 304
193 305
194 195
194 196
194 197
194 198
194 204
194 205
194 206
194 207
194 208
195 196
195 197
195 198
195 239
195 242
195 243
195 244
195 245
196 197
196 198
196 260
196 266
196 269
196 270
196 271
197 198
197 217
197 226
197 231
197 286
197 288
198 296
198 306
198 307
198 308
198 309
198 310
199 200
199 201
199 202
199 203
199 233
199 236
199 237
199 238
200 201
200 202
200 203
200 225
200 236
200 239
200 240
200 241
201 202
201 203
201 243
201 256
201 277
201 278
201 279
202 203
202 212
202 222
202 230
202 286
202 287
203 301
203 311
203 312
203 313
203 314
203 315
204 205
204 206
204 207
204 208
204 209
204 210
204 211
204 212
204 213
205 206
205 207
205 208
205 215
205 246
205 247
205 248
205 249
206 207
206 208
206 229
206 270
206 275
206 280
206 282
207 208
207 234
207 261
207 283
207 285
208 306
208 316
208 317
208 318
208 319
208 320
209 210
209 211
209 212
209 213
209 219
209 220
209 221
209 222
209 223
210 211
210 212
210 213
210 214
210 228
210 233
210 234
210 235
211 212
211 213
211 216
211 266
211 267
211 268
212 213
212 222
212 230
212 286
212 287
213 316
213 321
213 322
213 323
213 324
213 325
214 215
214 216
214 217
214 218
214 228
214 233
214 234
214 235
215 216
215 217
215 218
215 246
215 247
215 248
215 249
216 217
216 218
216 266
216 267
216 268
217 218
217 226
217 231
217 286
217 288
218 302
218 326
218 327
218 328
218 329
218 330
219 220
219 221
219 222
219 223
219 224
219 225
219 226
219 227
220 221
220 222
220 223
220 250
220 251
220 252
220 253
220 254
221 222
221 223
221 247
221 251
221 259
221 263
222 223
222 230
222 286
222 287
223 321
223 331
223 332
223 333
223 334
223 335
224 225
224 226
224 227
224 228
224 229
224 230
224 231
224 232
225 226
225 227
225 236
225 239
225 240
225 241
226 227
226 231
226 286
226 288
227 289
227 331
227 336
227 337
227 338
227 339
228 229
228 230
228 231
228 232
228 233
228 234
228 235
229 230
229 231
229 232
229 270
229 275
229 280
229 282
230 231
230 232
230 286
230 287
231 232
231 286
231 288
232 336
232 340
232 341
232 342
232 343
232 344
233 234
233 235
233 236
233 237
233 238
234 235
234 261
234 283
234 285
235 322
235 326
235 340
235 345
235 346
235 347
236 237
236 238
236 239
236 240
236 241
237 238
237 253
237 255
237 272
237 273
237 274
238 290
238 311
238 345
238 348
238 349
238 350
239 240
239 241
239 242
239 243
239 244
239 245
240 241
240 250
240 259
240 260
240 261
240 262
241 312
241 337
241 348
241 351
241 352
241 353
242 243
242 244
242 245
242 252
242 264
242 265
243 244
243 245
243 256
243 277
243 278
243 279
244 245
244 257
244 273
244 277
244 280
244 281
245 307
245 351
245 354
245 355
245 356
245 357
246 247
246 248
246 249
246 255
246 256
246 257
246 258
247 248
247 249
247 251
247 259
247 263
248 249
248 267
248 278
248 283
248 284
249 317
249 327
249 358
249 359
249 360
249 361
250 251
250 252
250 253
250 254
250 259
250 260
250 261
250 262
251 252
251 253
251 254
251 259
251 263
252 253
252 254
252 264
252 265
253 254
253 255
253 272
253 273
253 274
254 332
254 362
254 363
254 364
254 365
254 366
255 256
255 257
255 258
255 272
255 273
255 274
256 257
256 258
256 277
256 278
256 279
257 258
257 273
257 277
257 280
257 281
258 291
258 358
258 367
258 368
258 369
258 370
259 260
259 261
259 262
259 263
260 261
260 262
260 266
260 269
260 270
260 271
261 262
261 283
261 285
262 352
262 362
262 371
262 372
262 373
262 374
263 297
263 333
263 359
263 363
263 371
263 375
264 265
264 269
264 272
264 275
264 276
265 298
265 303
265 354
265 364
265 376
265 377
266 267
266 268
266 269
266 270
266 271
267 268
267 278
267 283
267 284
268 304
268 323
268 328
268 378
268 379
268 380
269 270
269 271
269 272
269 275
269 276
270 271
270 275
270 280
270 282
271 308
271 372
271 378
271 381
271 382
271 383
272 273
272 274
272 275
272 276
273 274
273 277
273 280
273 281
274 349
274 365
274 367
274 384
274 385
274 386
275 276
275 280
275 282
276 292
276 376
276 381
276 384
276 387
276 388
277 278
277 279
277 280
277 281
278 279
278 283
278 284
279 313
279 355
279 368
279 389
279 390
279 391
280 281
280 282
281 356
281 369
281 385
281 389
281 392
281 393
282 318
282 341
282 382
282 387
282 392
282 394
283 284
283 285
284 293
284 360
284 379
284 390
284 395
284 396
285 299
285 319
285 346
285 373
285 395
285 397
286 287
286 288
287 314
287 324
287 334
287 342
287 398
287 399
288 309
288 329
288 338
288 343
288 398
288 400
289 290
289 291
289 292
289 293
289 294
289 331
289 336
289 337
289 338
289 339
290 291
290 292
290 293
290 294
290 311
290 345
290 348
290 349
290 350
291 292
291 293
291 294
291 358
291 367
291 368
291 369
291 370
292 293
292 294
292 376
292 381
292 384
292 387
292 388
293 294
293 360
293 379
293 390
293 395
293 396
294 401
294 402
294 403
294 404
294 405
294 406
295 296
295 297
295 298
295 299
295 300
295 301
295 302
295 303
295 304
295 305
296 297
296 298
296 299
296 300
296 306
296 307
296 308
296 309
296 310
297 298
297 299
297 300
297 333
297 359
297 363
297 371
297 375
298 299
298 300
298 303
298 354
298 364
298 376
298 377
299 300
299 319
299 346
299 373
299 395
299 397
300 407
300 408
300 409
300 410
300 411
300 412
301 302
301 303
301 304
301 305
301 311
301 312
301 313
301 314
301 315
302 303
302 304
302 305
302 326
302 327
302 328
302 329
302 330
303 304
303 305
303 354
303 364
303 376
303 377
304 305
304 323
304 328
304 378
304 379
304 380
305 407
305 413
305 414
305 415
305 416
305 417
306 307
306 308
306 309
306 310
306 316
306 317
306 318
306 319
306 320
307 308
307 309
307 310
307 351
307 354
307 355
307 356
307 357
308 309
308 310
308 372
308 378
308 381
308 382
308 383
309 310
309 329
309 338
309 343
309 398
309 400
310 408
310 418
310 419
310 420
310 421
310 422
311 312
311 313
311 314
311 315
311 345
311 348
311 349
311 350
312 313
312 314
312 315
312 337
312 348
312 351
312 352
312 353
313 314
313 315
313 355
313 368
313 389
313 390
313 391
314 315
314 324
314 334
314 342
314 398
314 399
315 413
315 423
315 424
315 425
315 426
315 427
316 317
316 318
316 319
316 320
316 321
316 322
316 323
316 324
316 325
317 318
317 319
317 320
317 327
317 358
317 359
317 360
317 361
318 319
318 320
318 341
318 382
318 387
318 392
318 394
319 320
319 346
319 373
319 395
319 397
320 418
320 428
320 429
320 430
320 431
320 432
321 322
321 323
321 324
321 325
321 331
321 332
321 333
321 334
321 335
322 323
322 324
322 325
322 326
322 340
322 345
322 346
322 347
323 324
323 325
323 328
323 378
323 379
323 380
324 325
324 334
324 342
324 398
324 399
325 428
325 433
325 434
325 435
325 436
325 437
326 327
326 328
326 329
326 330
326 340
326 345
326 346
326 347
327 328
327 329
327 330
327 358
327 359
327 360
327 361
328 329
328 330
328 378
328 379
328 380
329 330
329 338
329 343
329 398
329 400
330 414
330 438
330 439
330 440
330 441
330 442
331 332
331 333
331 334
331 335
331 336
331 337
331 338
331 339
332 333
332 334
332 335
332 362
332 363
332 364
332 365
332 366
333 334
333 335
333 359
333 363
333 371
333 375
334 335
334 342
334 398
334 399
335 433
335 443
335 444
335 445
335 446
335 447
336 337
336 338
336 339
336 340
336 341
336 342
336 343
336 344
337 338
337 339
337 348
337 351
337 352
337 353
338 339
338 343
338 398
338 400
339 401
339 443
339 448
339 449
339 450
339 451
340 341
340 342
340 343
340 344
340 345
340 346
340 347
341 342
341 343
341 344
341 382
341 387
341 392
341 394
342 343
342 344
342 398
342 399
343 344
343 398
343 400
344 448
344 452
344 453
344 454
344 455
344 456
345 346
345 347
345 348
345 349
345 350
346 347
346 373
346 395
346 397
347 434
347 438
347 452
347 457
347 458
347 459
348 349
348 350
348 351
348 352
348 353
349 350
349 365
349 367
349 384
349 385
349 386
350 402
350 423
350 457
350 460
350 461
350 462
351 352
351 353
351 354
351 355
351 356
351 357
352 353
352 362
352 371
352 372
352 373
352 374
353 424
353 449
353 460
353 463
353 464
353 465
354 355
354 356
354 357
354 364
354 376
354 377
355 356
355 357
355 368
355 389
355 390
355 391
356 357
356 369
356 385
356 389
356 392
356 393
357 419
357 463
357 466
357 467
357 468
357 469
358 359
358 360
358 361
358 367
358 368
358 369
358 370
359 360
359 361
359 363
359 371
359 375
360 361
360 379
360 390
360 395
360 396
361 429
361 439
361 470
361 471
361 472
361 473
362 363
362 364
362 365
362 366
362 371
362 372
362 373
362 374
363 364
363 365
363 366
363 371
363 375
364 365
364 366
364 376
364 377
365 366
365 367
365 384
365 385
365 386
366 444
366 474
366 475
366 476
366 477
366 478
367 368
367 369
367 370
367 384
367 385
367 386
368 369
368 370
368 389
368 390
368 391
369 370
369 385
369 389
369 392
369 393
370 403
370 470
370 479
370 480
370 481
370 482
371 372
371 373
371 374
371 375
372 373
372 374
372 378
372 381
372 382
372 383
373 374
373 395
373 397
374 464
374 474
374 483
374 484
374 485
374 486
375 409
375 445
375 471
375 475
375 483
375 487
376 377
376 381
376 384
376 387
376 388
377 410
377 415
377 466
377 476
377 488
377 489
378 379
378 380
378 381
378 382
378 383
379 380
379 390
379 395
379 396
380 416
380 435
380 440
380 490
380 491
380 492
381 382
381 383
381 384
381 387
381 388
382 383
382 387
382 392
382 394
383 420
383 484
383 490
383 493
383 494
383 495
384 385
384 386
384 387
384 388
385 386
385 389
385 392
385 393
386 461
386 477
386 479
386 496
386 497
386 498
387 388
387 392
387 394
388 404
388 488
388 493
388 496
388 499
388 500
389 390
389 391
389 392
389 393
390 391
390 395
390 396
391 425
391 467
391 480
391 501
391 502
391 503
392 393
392 394
393 468
393 481
393 497
393 501
393 504
393 505
394 430
394 453
394 494
394 499
394 504
394 506
395 396
395 397
396 405
396 472
396 491
396 502
396 507
396 508
397 411
397 431
397 458
397 485
397 507
397 509
398 399
398 400
399 426
399 436
399 446
399 454
399 510
399 511
400 421
400 441
400 450
400 455
400 510
400 512
401 402
401 403
401 404
401 405
401 406
401 443
401 448
401 449
401 450
401 451
402 403
402 404
402 405
402 406
402 423
402 457
402 460
402 461
402 462
403 404
403 405
403 406
403 470
403 479
403 480
403 481
403 482
404 405
404 406
404 488
404 493
404 496
404 499
404 500
405 406
405 472
405 491
405 502
405 507
405 508
406 515
407 408
407 409
407 410
407 411
407 412
407 413
407 414
407 415
407 416
407 417
408 409
408 410
408 411
408 412
408 418
408 419
408 420
408 421
408 422
409 410
409 411
409 412
409 445
409 471
409 475
409 483
409 487
410 411
410 412
410 415
410 466
410 476
410 488
410 489
411 412
411 431
411 458
411 485
411 507
411 509
412 514
413 414
413 415
413 416
413 417
413 423
413 424
413 425
413 426
413 427
414 415
414 416
414 417
414 438
414 439
414 440
414 441
414 442
415 416
415 417
415 466
415 476
415 488
415 489
416 417
416 435
416 440
416 490
416 491
416 492
417 525
418 419
418 420
418 421
418 422
418 428
418 429
418 430
418 431
418 432
419 420
419 421
419 422
419 463
419 466
419 467
419 468
419 469
420 421
420 422
420 484
420 490
420 493
420 494
420 495
421 422
421 441
421 450
421 455
421 510
421 512
422 534
423 424
423 425
423 426
423 427
423 457
423 460
423 461
423 462
424 425
424 426
424 427
424 449
424 460
424 463
424 464
424 465
425 426
425 427
425 467
425 480
425 501
425 502
425 503
426 427
426 436
426 446
426 454
426 510
426 511
427 528
428 429
428 430
428 431
428 432
428 433
428 434
428 435
428 436
428 437
429 430
429 431
429 432
429 439
429 470
429 471
429 472
429 473
430 431
430 432
430 453
430 494
430 499
430 504
430 506
431 432
431 458
431 485
431 507
431 509
432 519
433 434
433 435
433 436
433 437
433 443
433 444
433 445
433 446
433 447
434 435
434 436
434 437
434 438
434 452
434 457
434 458
434 459
435 436
435 437
435 440
435 490
435 491
435 492
436 437
436 446
436 454
436 510
436 511
437 536
438 439
438 440
438 441
438 442
438 452
438 457
438 458
438 459
439 440
439 441
439 442
439 470
439 471
439 472
439 473
440 441
440 442
440 490
440 491
440 492
441 442
441 450
441 455
441 510
441 512
442 520
443 444
443 445
443 446
443 447
443 448
443 449
443 450
443 451
444 445
444 446
444 447
444 474
444 475
444 476
444 477
444 478
445 446
445 447
445 471
445 475
445 483
445 487
446 447
446 454
446 510
446 511
447 516
448 449
448 450
448 451
448 452
448 453
448 454
448 455
448 456
449 450
449 451
449 460
449 463
449 464
449 465
450 451
450 455
450 510
450 512
451 531
452 453
452 454
452 455
452 456
452 457
452 458
452 459
453 454
453 455
453 456
453 494
453 499
453 504
453 506
454 455
454 456
454 510
454 511
455 456
455 510
455 512
456 540
457 458
457 459
457 460
457 461
457 462
458 459
458 485
458 507
458 509
459 521
460 461
460 462
460 463
460 464
460 465
461 462
461 477
461 479
461 496
461 497
461 498
462 527
463 464
463 465
463 466
463 467
463 468
463 469
464 465
464 474
464 483
464 484
464 485
464 486
465 517
466 467
466 468
466 469
466 476
466 488
466 489
467 468
467 469
467 480
467 501
467 502
467 503
468 469
468 481
468 497
468 501
468 504
468 505
469 532
470 471
470 472
470 473
470 479
470 480
470 481
470 482
471 472
471 473
471 475
471 483
471 487
472 473
472 491
472 502
472 507
472 508
473 524
474 475
474 476
474 477
474 478
474 483
474 484
474 485
474 486
475 476
475 477
475 478
475 483
475 487
476 477
476 478
476 488
476 489
477 478
477 479
477 496
477 497
477 498
478 538
479 480
479 481
479 482
479 496
479 497
479 498
480 481
480 482
480 501
480 502
480 503
481 482
481 497
481 501
481 504
481 505
482 535
483 484
483 485
483 486
483 487
484 485
484 486
484 490
484 493
484 494
484 495
485 486
485 507
485 509
486 533
487 542
488 489
488 493
488 496
488 499
488 500
489 530
490 491
490 492
490 493
490 494
490 495
491 492
491 502
491 507
491 508
492 522
493 494
493 495
493 496
493 499
493 500
494 495
494 499
494 504
494 506
495 541
496 497
496 498
496 499
496 500
497 498
497 501
497 504
497 505
498 539
499 500
499 504
499 506
500 544
501 502
501 503
501 504
501 505
502 503
502 507
502 508
503 537
504 505
504 506
505 518
506 526
507 508
507 509
508 513
509 543
510 511
510 512
511 523
512 529
